--- Job Ex6-3-integer.gms Start 10/16/24 12:35:29 47.6.0 c2de9d6d WEX-WEI x86 64bit/MS Windows
--- Applying:
    C:\GAMS\win64\47\gmsprmNT.txt
--- GAMS Parameters defined
    Input C:\Users\david\Box\_Rosenberg2024\Classes\CEE6410\Fall2024\CEE6410-Rosenberg-GitHub\CEE-6410-Rosenberg\Lectures\Ex6-3-integer.gms
    PageSize 0
    ScrDir C:\Users\david\Box\_Rosenberg2024\Classes\CEE6410\Fall2024\CEE6410-Rosenberg-GitHub\CEE-6410-Rosenberg\Lectures\225a\
    SysDir C:\GAMS\win64\47\
    LogOption 3
    ErrMsg 1
    ErrorLog 99
    IDE 1
    LstTitleLeftAligned 1
Licensee: CEE 6410 Water Resources Systems Analysis      G240923|0002AO-GEN
          Utah State University, Utah Water Research Laboratory     DCE3763
          C:\Users\david\Documents\GAMS\gamslice.txt
          License Admin: David Rosenberg, david.rosenberg@usu.edu          
          Other time limited license
          The evaluation period of the license will expire on Dec 22, 2024
Processor information: 1 socket(s), 4 core(s), and 8 thread(s) available
GAMS 47.6.0   Copyright (C) 1987-2024 GAMS Development. All rights reserved
--- Starting compilation
--- Ex6-3-integer.gms(80) 3 Mb
--- Starting execution: elapsed 0:00:00.038
--- Generating MIP model WatSupplyRelaxed
--- Ex6-3-integer.gms(73) 4 Mb
---   10 rows  5 columns  18 non-zeroes
---   2 discrete-columns
--- Range statistics (absolute non-zero finite values)
--- RHS       [min, max] : [ 1.000E+00, 2.000E+03] - Zero values observed as well
--- Bound     [min, max] : [ 1.000E+00, 1.000E+00] - Zero values observed as well
--- Matrix    [min, max] : [ 1.000E+00, 9.000E+04]
--- Executing CPLEX (Solvelink=2): elapsed 0:00:00.139

IBM ILOG CPLEX   47.6.0 c2de9d6d Sep 12, 2024          WEI x86 64bit/MS Window

*** This solver runs with a community license.
--- GMO setup time: 0.00s
--- GMO memory 0.50 Mb (peak 0.50 Mb)
--- Dictionary memory 0.00 Mb
--- Cplex 22.1.1.0 link memory 0.00 Mb (peak 0.00 Mb)
--- Starting Cplex

Version identifier: 22.1.1.0 | 2022-11-27 | 9160aff4d
CPXPARAM_Advance                                 0
CPXPARAM_Simplex_Display                         2
CPXPARAM_MIP_Display                             4
CPXPARAM_MIP_Pool_Capacity                       0
CPXPARAM_MIP_Tolerances_AbsMIPGap                0
Generic callback                                 0x50
Found incumbent of value 330000.000000 after 0.02 sec. (0.00 ticks)
Tried aggregator 1 time.
MIP Presolve eliminated 5 rows and 1 columns.
Reduced MIP has 4 rows, 4 columns, and 8 nonzeros.
Reduced MIP has 2 binaries, 0 generals, 0 SOSs, and 0 indicators.
Presolve time = 0.00 sec. (0.01 ticks)
Probing time = 0.00 sec. (0.00 ticks)
Tried aggregator 2 times.
MIP Presolve modified 1 coefficients.
Aggregator did 1 substitutions.
Reduced MIP has 3 rows, 3 columns, and 6 nonzeros.
Reduced MIP has 2 binaries, 0 generals, 0 SOSs, and 0 indicators.
Presolve time = 0.00 sec. (0.01 ticks)
Probing time = 0.00 sec. (0.00 ticks)
Tried aggregator 1 time.
Reduced MIP has 3 rows, 3 columns, and 6 nonzeros.
Reduced MIP has 2 binaries, 1 generals, 0 SOSs, and 0 indicators.
Presolve time = 0.02 sec. (0.00 ticks)
Probing time = 0.00 sec. (0.00 ticks)
Clique table members: 1.
MIP emphasis: balance optimality and feasibility.
MIP search method: dynamic search.
Parallel mode: deterministic, using up to 8 threads.
Parallel mode: deterministic, using up to 2 threads for parallel tasks at root LP.
Tried aggregator 1 time.
LP Presolve eliminated 2 rows and 2 columns.
Aggregator did 1 substitutions.
All rows and columns eliminated.
Presolve time = 0.00 sec. (0.00 ticks)
Initializing dual steep norms . . .
Root relaxation solution time = 0.00 sec. (0.00 ticks)

        Nodes                                         Cuts/
   Node  Left     Objective  IInf  Best Integer    Best Bound    ItCnt     Gap

*     0+    0                       330000.0000   240000.0000            27.27%
Found incumbent of value 330000.000000 after 0.03 sec. (0.03 ticks)
      0     0        cutoff         330000.0000                      0    0.00%

Root node processing (before b&c):
  Real time             =    0.03 sec. (0.03 ticks)
Parallel b&c, 8 threads:
  Real time             =    0.00 sec. (0.00 ticks)
  Sync time (average)   =    0.00 sec.
  Wait time (average)   =    0.00 sec.
                          ------------
Total (root+branch&cut) =    0.03 sec. (0.03 ticks)

--- MIP status (101): integer optimal solution.
--- Cplex Time: 0.03sec (det. 0.03 ticks)

--- Returning a primal only solution to GAMS (marginals all set to NA).
--- Fixing integer variables and solving final LP...

Version identifier: 22.1.1.0 | 2022-11-27 | 9160aff4d
CPXPARAM_Advance                                 2
CPXPARAM_Simplex_Display                         2
CPXPARAM_MIP_Display                             4
CPXPARAM_MIP_Pool_Capacity                       0
CPXPARAM_MIP_Tolerances_AbsMIPGap                0
Tried aggregator 1 time.
LP Presolve eliminated 9 rows and 5 columns.
All rows and columns eliminated.
Presolve time = 0.00 sec. (0.00 ticks)

--- Fixed MIP status (1): optimal.
--- Cplex Time: 0.00sec (det. 0.01 ticks)


Proven optimal solution
MIP Solution:       330000.000000    (0 iterations, 0 nodes)
Final Solve:        330000.000000    (0 iterations)

Best possible:      330000.000000
Absolute gap:            0.000000
Relative gap:            0.000000

--- Reading solution for model WatSupplyRelaxed
--- Executing after solve: elapsed 0:00:00.284
--- Ex6-3-integer.gms(78) 4 Mb
--- GDX File (execute_unload) C:\Users\david\Box\_Rosenberg2024\Classes\CEE6410\Fall2024\CEE6410-Rosenberg-GitHub\CEE-6410-Rosenberg\Lectures\Ex6-3-integer.gdx
--- Ex6-3-integer.gms(80) 4 Mb
GDX2XLS          47.6.0 c2de9d6d Sep 12, 2024          WEI x86 64bit/MS Window
Output file: C:\Users\david\Box\_Rosenberg2024\Classes\CEE6410\Fall2024\CEE6410-Rosenberg-GitHub\CEE-6410-Rosenberg\Lectures\Ex6-3-integer.xlsx
*** Status: Normal completion
--- Job Ex6-3-integer.gms Stop 10/16/24 12:35:33 elapsed 0:00:04.429
